p wcnf 100 122 123 
1 -87 79 0 
1 -80 4 0 
1 -51 -59 0 
1 91 -34 0 
1 88 -59 0 
1 -89 36 0 
1 -85 -34 0 
1 55 37 0 
1 -44 -51 0 
1 -29 -33 0 
1 -58 96 0 
1 62 38 0 
1 62 41 0 
1 82 -93 0 
1 26 -90 0 
1 95 64 0 
1 -77 71 0 
1 -45 -24 0 
1 56 45 0 
1 16 -35 0 
1 75 -16 0 
1 -64 -49 0 
1 3 -32 0 
1 -64 15 0 
1 3 88 0 
1 28 90 0 
1 99 -44 0 
1 27 -1 0 
1 74 -20 0 
1 -36 1 0 
1 40 5 0 
1 21 -57 0 
1 38 76 0 
1 -98 -45 0 
1 68 58 0 
1 -44 24 0 
1 -57 -97 0 
1 -81 -21 0 
1 14 -31 0 
1 44 25 0 
1 -37 -8 0 
1 63 -77 0 
1 -8 55 0 
1 -97 98 0 
1 59 -69 0 
1 -21 40 0 
1 -69 -92 0 
1 60 -51 0 
1 34 60 0 
1 -22 76 0 
1 36 30 0 
1 -11 19 0 
1 75 -77 0 
1 82 -91 0 
1 76 -100 0 
1 -77 -24 0 
1 75 17 0 
1 -32 90 0 
1 84 43 0 
1 -30 81 0 
1 -4 -41 0 
1 58 -87 0 
1 4 -86 0 
1 -4 -31 0 
1 18 20 0 
1 -83 -39 0 
1 76 52 0 
1 -71 21 0 
1 -90 -57 0 
1 -18 7 0 
1 38 -91 0 
1 -11 -14 0 
1 96 -11 0 
1 -95 72 0 
1 -94 17 0 
1 15 -5 0 
1 23 -19 0 
1 45 93 0 
1 -28 52 0 
1 -63 -98 0 
1 42 63 0 
1 -12 -64 0 
1 81 25 0 
1 -79 -81 0 
1 -46 80 0 
1 -39 45 0 
1 -47 67 0 
1 99 60 0 
1 -21 43 0 
1 72 79 0 
1 96 -23 0 
1 -64 -17 0 
1 93 67 0 
1 -65 -29 0 
1 57 -98 0 
1 70 45 0 
1 -41 49 0 
1 -62 -98 0 
1 -55 84 0 
1 -92 -89 0 
1 44 18 0 
1 -43 -29 0 
1 32 34 0 
1 -4 -42 0 
1 3 -66 0 
1 21 -20 0 
1 -98 67 0 
1 92 -14 0 
1 -35 -16 0 
1 -90 14 0 
1 72 57 0 
1 12 -95 0 
1 84 43 0 
1 53 -20 0 
1 6 -28 0 
1 86 74 0 
1 -25 -77 0 
1 4 -95 0 
1 -44 98 0 
1 36 -41 0 
1 66 -32 0 
1 71 90 0 
